(set-logic QF_LIA)
(declare-fun x0 () Int)
(declare-fun x1 () Int)
(declare-fun x2 () Int)
(declare-fun x3 () Int)
(declare-fun x4 () Int)
(declare-fun x5 () Int)
(declare-fun x6 () Int)
(declare-fun x7 () Int)
(declare-fun x8 () Int)
(declare-fun x9 () Int)
(declare-fun A0 () Bool)
(declare-fun A1 () Bool)
(declare-fun A2 () Bool)
(declare-fun A3 () Bool)
(declare-fun A4 () Bool)
(declare-fun A5 () Bool)
(declare-fun A6 () Bool)
(declare-fun A9 () Bool)
(assert (let ((.def_0 (* 1 x5))) (let ((.def_1 (* 1 x6))) (let ((.def_2 (+ .def_1 .def_0))) (let ((.def_3 (< .def_2 1))) (let ((.def_4 (not .def_3))) (let ((.def_5 (not A6))) (let ((.def_6 (or .def_5 .def_4))) (let ((.def_7 (not .def_6))) (let ((.def_8 (* (- 1) x2))) (let ((.def_9 (* 1 x8))) (let ((.def_10 (+ .def_9 .def_8))) (let ((.def_11 (< .def_10 1))) (let ((.def_12 (not .def_11))) (let ((.def_13 (or .def_12 A0))) (let ((.def_14 (not .def_13))) (let ((.def_15 (or .def_14 .def_7))) (let ((.def_16 (not .def_15))) (let ((.def_17 (or A3 A6))) (let ((.def_18 (* 1 x0))) (let ((.def_19 (< .def_18 (- 1)))) (let ((.def_20 (not .def_19))) (let ((.def_21 (or A9 .def_20))) (let ((.def_22 (not .def_21))) (let ((.def_23 (and .def_22 .def_17))) (let ((.def_24 (or .def_23 .def_16))) (let ((.def_25 (not .def_24))) (let ((.def_26 (* (- 1) x3))) (let ((.def_27 (< .def_26 (- 1)))) (let ((.def_28 (* 1 x7))) (let ((.def_29 (* (- 1) x5))) (let ((.def_30 (+ .def_29 .def_28))) (let ((.def_31 (< .def_30 (- 1)))) (let ((.def_32 (= .def_31 .def_27))) (let ((.def_33 (not .def_32))) (let ((.def_34 (* (- 1) x1))) (let ((.def_35 (< .def_34 (- 1)))) (let ((.def_36 (not .def_35))) (let ((.def_37 (or A1 .def_36))) (let ((.def_38 (not .def_37))) (let ((.def_39 (and .def_38 .def_33))) (let ((.def_40 (and A4 A3))) (let ((.def_41 (* 1 x4))) (let ((.def_42 (+ .def_0 .def_41))) (let ((.def_43 (< .def_42 1))) (let ((.def_44 (not .def_43))) (let ((.def_45 (< .def_1 (- 1)))) (let ((.def_46 (not .def_45))) (let ((.def_47 (and .def_46 .def_44))) (let ((.def_48 (not .def_47))) (let ((.def_49 (and .def_48 .def_40))) (let ((.def_50 (and .def_49 .def_39))) (let ((.def_51 (not .def_50))) (let ((.def_52 (and .def_51 .def_25))) (let ((.def_53 (and A3 A1))) (let ((.def_54 (and A9 A1))) (let ((.def_55 (not .def_54))) (let ((.def_56 (or .def_55 .def_53))) (let ((.def_57 (* (- 1) x9))) (let ((.def_58 (+ .def_57 .def_28))) (let ((.def_59 (< .def_58 1))) (let ((.def_60 (not .def_59))) (let ((.def_61 (or A2 .def_60))) (let ((.def_62 (not .def_61))) (let ((.def_63 (< .def_8 1))) (let ((.def_64 (not A2))) (let ((.def_65 (or .def_64 .def_63))) (let ((.def_66 (= .def_65 .def_62))) (let ((.def_67 (not .def_66))) (let ((.def_68 (and .def_67 .def_56))) (let ((.def_69 (not .def_68))) (let ((.def_70 (* (- 1) x4))) (let ((.def_71 (+ .def_70 .def_1))) (let ((.def_72 (< .def_71 1))) (let ((.def_73 (not .def_72))) (let ((.def_74 (or A5 .def_73))) (let ((.def_75 (< .def_0 1))) (let ((.def_76 (or .def_75 A3))) (let ((.def_77 (not .def_76))) (let ((.def_78 (= .def_77 .def_74))) (let ((.def_79 (* 1 x2))) (let ((.def_80 (+ .def_29 .def_79))) (let ((.def_81 (< .def_80 (- 1)))) (let ((.def_82 (not .def_81))) (let ((.def_83 (or .def_5 .def_82))) (let ((.def_84 (or A0 A2))) (let ((.def_85 (not .def_84))) (let ((.def_86 (and .def_85 .def_83))) (let ((.def_87 (not .def_86))) (let ((.def_88 (or .def_87 .def_78))) (let ((.def_89 (or .def_88 .def_69))) (let ((.def_90 (and .def_89 .def_52))) (let ((.def_91 (<= x9 1))) (let ((.def_92 (<= 0 x9))) (let ((.def_93 (<= x8 1))) (let ((.def_94 (<= 0 x8))) (let ((.def_95 (<= x7 1))) (let ((.def_96 (<= 0 x7))) (let ((.def_97 (<= x6 1))) (let ((.def_98 (<= 0 x6))) (let ((.def_99 (<= x5 1))) (let ((.def_100 (<= 0 x5))) (let ((.def_101 (<= x4 1))) (let ((.def_102 (<= 0 x4))) (let ((.def_103 (<= x3 1))) (let ((.def_104 (<= 0 x3))) (let ((.def_105 (<= x2 1))) (let ((.def_106 (<= 0 x2))) (let ((.def_107 (<= x1 1))) (let ((.def_108 (<= 0 x1))) (let ((.def_109 (<= x0 1))) (let ((.def_110 (<= 0 x0))) (let ((.def_111 (and .def_110 .def_109 .def_108 .def_107 .def_106 .def_105 .def_104 .def_103 .def_102 .def_101 .def_100 .def_99 .def_98 .def_97 .def_96 .def_95 .def_94 .def_93 .def_92 .def_91 .def_90))) .def_111)))))))))))))))))))))))))))))))))))))))))))))))))))))))))))))))))))))))))))))))))))))))))))))))))))))))))))))))))
(check-sat)
